param n := 2;

param m := 5;

param K := 500;

param a :=
1 	 0.478073
2 	 0.474004
;
 param A :=
[1, *, *]:  1	2	:=
1	0.606327	0.809372	
2	-0.195215	-0.925878	

[2, *, *]:  1	2	:=
1	0.547749	0.237027	
2	-0.748717	-0.979271	

[3, *, *]:  1	2	:=
1	0.077255	0.902388	
2	-0.993964	0.810804	

[4, *, *]:  1	2	:=
1	0.591934	-0.708884	
2	0.830549	-0.684540	

[5, *, *]:  1	2	:=
1	-0.624737	0.811619	
2	0.244992	0.979910	
;